875713
10 193406
44
172870 172869 172868 172867 172866 172865 172864 172863 172862 172861 172860 172859 172858 172857 172856 172855 172854 172853 172835 172834 172833 172831 172830 172820 172886 172885 172884 172883 172882 172881 172880 172879 172878 172877 172876 172875 172874 172873 172832 172822 172821 172819 170703 172872 
2068 20426
8597.48
